W=9;
H=9;

MAX_TIME=42;
MAX_TRACKS=15;

TARGET=(9,9);

TRAINS=[(5,8,LEFT),(5,2,RIGHT),(2,5,DOWN)];
DECOYS=[(8,4,TOP)];

INIT_POS=[
(1,3,ROCK),
(1,7,ROCK),
(2,3,ROCK),
(2,5,STRAIGHT_TD),
(2,7,ROCK),
(3,1,ROCK),  
(3,2,ROCK),
(3,3,ROCK),
(3,7,ROCK),  
(3,8,ROCK),
(3,9,ROCK),
(4,5,ESWITCH_L_R_D),
(5,2,STRAIGHT_RL),
(5,4,ESWITCH_T_D_L),
(5,6,ESWITCH_D_T_R),
(5,8,STRAIGHT_RL),
(6,5,ESWITCH_L_R_T),
(7,1,ROCK),
(7,2,ROCK),
(7,3,ROCK),
(7,7,ROCK),
(7,8,ROCK),
(7,9,ROCK),
(8,3,ROCK),
(8,4,STRAIGHT_TD),
(8,5,ROCK),
(9,3,ROCK),
(9,6,ESWITCH_R_L_T),
(9,7,SWITCH_L_R_T),
(9,8,SWITCH_L_R_T),
(9,9,STRAIGHT_RL),
];
TUNNEL_PAIRS=[
  (5, 1, RIGHT, 8, 7, DOWN),
  (5, 9, LEFT, 8, 6, DOWN),
  (1, 5, DOWN, 8, 8, DOWN),
];

GATES=[];
ACTIVATIONS=[];

DSWITCHES=[];
STATIONS=[];
